50
25449

689 610
879 972
884 332
460 665
366 806
746 499
675 711
766 532
617 572
576 931
311 107
296 878
500 571
993 188
348 174
762 295
440 821
769 326
902 573
150 61
343 907
166 416
70 821
863 16
927 95
903 404
982 886
927 316
798 151
116 230
193 651
217 746
530 742
509 295
710 712
671 713
964 837
408 704
234 992
184 132
843 72
272 172
681 561
694 482
96 817
157 863
439 307
630 665
895 8
443 588
